NAME 
ROWS
 N  OBJ
 G  R0      
 G  R1      
 G  R2      
 G  R3      
 G  R4      
 G  R5      
 G  R6      
 G  R7      
 G  R8      
 G  R9      
 G  R10     
 G  R11     
 G  R12     
 G  R13     
 G  R14     
 G  R15     
 G  R16     
 G  R17     
 G  R18     
 G  R19     
 G  R20     
 G  R21     
 G  R22     
 G  R23     
COLUMNS
    x0        OBJ       1
    x0        R0        1
    x0        R1        1
    x0        R2        1
    x0        R3        1
    x0        R6        1
    x0        R12       1
    x1        OBJ       1
    x1        R0        1
    x1        R1        1
    x1        R2        1
    x1        R4        1
    x1        R7        1
    x1        R13       1
    x2        OBJ       1
    x2        R0        1
    x2        R1        1
    x2        R2        1
    x2        R5        1
    x2        R8        1
    x2        R14       1
    x3        OBJ       1
    x3        R0        1
    x3        R3        1
    x3        R4        1
    x3        R5        1
    x3        R9        1
    x3        R15       1
    x4        OBJ       1
    x4        R1        1
    x4        R3        1
    x4        R4        1
    x4        R5        1
    x4        R10       1
    x4        R16       1
    x5        OBJ       1
    x5        R2        1
    x5        R3        1
    x5        R4        1
    x5        R5        1
    x5        R11       1
    x5        R17       1
    x6        OBJ       1
    x6        R0        1
    x6        R6        1
    x6        R7        1
    x6        R8        1
    x6        R9        1
    x6        R18       1
    x7        OBJ       1
    x7        R1        1
    x7        R6        1
    x7        R7        1
    x7        R8        1
    x7        R10       1
    x7        R19       1
    x8        OBJ       1
    x8        R2        1
    x8        R6        1
    x8        R7        1
    x8        R8        1
    x8        R11       1
    x8        R20       1
    x9        OBJ       1
    x9        R3        1
    x9        R6        1
    x9        R9        1
    x9        R10       1
    x9        R11       1
    x9        R21       1
    x10       OBJ       1
    x10       R4        1
    x10       R7        1
    x10       R9        1
    x10       R10       1
    x10       R11       1
    x10       R22       1
    x11       OBJ       1
    x11       R5        1
    x11       R8        1
    x11       R9        1
    x11       R10       1
    x11       R11       1
    x11       R23       1
    x12       OBJ       1
    x12       R0        1
    x12       R12       1
    x12       R13       1
    x12       R14       1
    x12       R15       1
    x12       R18       1
    x13       OBJ       1
    x13       R1        1
    x13       R12       1
    x13       R13       1
    x13       R14       1
    x13       R16       1
    x13       R19       1
    x14       OBJ       1
    x14       R2        1
    x14       R12       1
    x14       R13       1
    x14       R14       1
    x14       R17       1
    x14       R20       1
    x15       OBJ       1
    x15       R3        1
    x15       R12       1
    x15       R15       1
    x15       R16       1
    x15       R17       1
    x15       R21       1
    x16       OBJ       1
    x16       R4        1
    x16       R13       1
    x16       R15       1
    x16       R16       1
    x16       R17       1
    x16       R22       1
    x17       OBJ       1
    x17       R5        1
    x17       R14       1
    x17       R15       1
    x17       R16       1
    x17       R17       1
    x17       R23       1
    x18       OBJ       1
    x18       R6        1
    x18       R12       1
    x18       R18       1
    x18       R19       1
    x18       R20       1
    x18       R21       1
    x19       OBJ       1
    x19       R7        1
    x19       R13       1
    x19       R18       1
    x19       R19       1
    x19       R20       1
    x19       R22       1
    x20       OBJ       1
    x20       R8        1
    x20       R14       1
    x20       R18       1
    x20       R19       1
    x20       R20       1
    x20       R23       1
    x21       OBJ       1
    x21       R9        1
    x21       R15       1
    x21       R18       1
    x21       R21       1
    x21       R22       1
    x21       R23       1
    x22       OBJ       1
    x22       R10       1
    x22       R16       1
    x22       R19       1
    x22       R21       1
    x22       R22       1
    x22       R23       1
    x23       OBJ       1
    x23       R11       1
    x23       R17       1
    x23       R20       1
    x23       R21       1
    x23       R22       1
    x23       R23       1
RHS
    RHS1      R0        1
    RHS1      R1        1
    RHS1      R2        1
    RHS1      R3        1
    RHS1      R4        1
    RHS1      R5        1
    RHS1      R6        1
    RHS1      R7        1
    RHS1      R8        1
    RHS1      R9        1
    RHS1      R10       1
    RHS1      R11       1
    RHS1      R12       1
    RHS1      R13       1
    RHS1      R14       1
    RHS1      R15       1
    RHS1      R16       1
    RHS1      R17       1
    RHS1      R18       1
    RHS1      R19       1
    RHS1      R20       1
    RHS1      R21       1
    RHS1      R22       1
    RHS1      R23       1
BOUNDS
 UP BND1      x0        1
 UP BND1      x1        1
 UP BND1      x2        1
 UP BND1      x3        1
 UP BND1      x4        1
 UP BND1      x5        1
 UP BND1      x6        1
 UP BND1      x7        1
 UP BND1      x8        1
 UP BND1      x9        1
 UP BND1      x10       1
 UP BND1      x11       1
 UP BND1      x12       1
 UP BND1      x13       1
 UP BND1      x14       1
 UP BND1      x15       1
 UP BND1      x16       1
 UP BND1      x17       1
 UP BND1      x18       1
 UP BND1      x19       1
 UP BND1      x20       1
 UP BND1      x21       1
 UP BND1      x22       1
 UP BND1      x23       1
ENDATA
